NAME : in_house_9_11
TYPE : TSP
DIMENSION : 9
EDGE_WEIGHT_TYPE : EXPLICIT
EDGE_WEIGHT_FORMAT : UPPER_ROW
COMMENT : INVERSION_SHIFT=8
EDGE_WEIGHT_SECTION
2
16
47
56
65
79
21
51
44
47
8
35
36
6
41
42
71
15
11
34
24
5
53
32
69
64
63
53
37
7
72
4
30
36
79
65
